+234+278+245+273+248+281+285+256+234+250+229+236+240+246+235+254+254+300+235+244+231+233+246+266+270+242+285+245+216+233+249+247+243+246+236+254+257+243+280+267+247+232+242+252+240+244+247+252+246+227+266+273+231+251+264+264+241+248+238+263+257+241+243+280+264+255+248+217+237+220+280+257+254+246+265+248+261+269+253+252+232+248+264+244+258+229+245+255+236+275+270+251+275+234+255+263+241+242+252+246